(set-info :smt-lib-version 2.6)
(set-logic UFNIA)
(set-info :source |
Generated by: Geoff Sutcliffe
Generated on: 2026-03-11
Generator: TPTPWorld
Application: Benchmarking automated theorem provers
Time limit: 120.0

These benchmarks are translations from the TPTP Library (Thousands of
Problems for Theorem Provers), see http://www.cs.miami.edu/~tptp/

The TPTP is maintained by Geoff Sutcliffe, and he contributed this
selection of benchmarks to SMT-LIB.  They were exported from the
v9.2.1 realease of TPTP.
|)
(set-info :category "industrial")
(set-info :status unknown)
; SZS status Success
(declare-sort $$unsorted 0)
(declare-sort tptp.uni 0)
(declare-sort tptp.ty 0)
(declare-fun tptp.sort (tptp.ty tptp.uni) Bool)
(declare-fun tptp.witness (tptp.ty) tptp.uni)
(assert (forall ((A tptp.ty)) (tptp.sort A (tptp.witness A))))
(declare-fun tptp.int () tptp.ty)
(declare-fun tptp.real () tptp.ty)
(declare-sort tptp.bool 0)
(declare-fun tptp.bool1 () tptp.ty)
(declare-fun tptp.true () tptp.bool)
(declare-fun tptp.false () tptp.bool)
(declare-fun tptp.match_bool (tptp.ty tptp.bool tptp.uni tptp.uni) tptp.uni)
(assert (forall ((A tptp.ty) (X tptp.bool) (X1 tptp.uni) (X2 tptp.uni)) (tptp.sort A (tptp.match_bool A X X1 X2))))
(assert (forall ((A tptp.ty) (Z tptp.uni) (Z1 tptp.uni)) (=> (tptp.sort A Z) (= (tptp.match_bool A tptp.true Z Z1) Z))))
(assert (forall ((A tptp.ty) (Z tptp.uni) (Z1 tptp.uni)) (=> (tptp.sort A Z1) (= (tptp.match_bool A tptp.false Z Z1) Z1))))
(assert (not (= tptp.true tptp.false)))
(assert (forall ((U tptp.bool)) (or (= U tptp.true) (= U tptp.false))))
(declare-sort tptp.tuple0 0)
(declare-fun tptp.tuple01 () tptp.ty)
(declare-fun tptp.tuple02 () tptp.tuple0)
(assert (forall ((U tptp.tuple0)) (= U tptp.tuple02)))
(declare-fun tptp.qtmark () tptp.ty)
(assert (forall ((X Int) (Y Int) (Z Int)) (=> (<= X Y) (=> (<= 0 Z) (<= (* X Z) (* Y Z))))))
(declare-fun tptp.list (tptp.ty) tptp.ty)
(declare-fun tptp.nil (tptp.ty) tptp.uni)
(assert (forall ((A tptp.ty)) (tptp.sort (tptp.list A) (tptp.nil A))))
(declare-fun tptp.cons (tptp.ty tptp.uni tptp.uni) tptp.uni)
(assert (forall ((A tptp.ty) (X tptp.uni) (X1 tptp.uni)) (tptp.sort (tptp.list A) (tptp.cons A X X1))))
(declare-fun tptp.match_list (tptp.ty tptp.ty tptp.uni tptp.uni tptp.uni) tptp.uni)
(assert (forall ((A tptp.ty) (A1 tptp.ty) (X tptp.uni) (X1 tptp.uni) (X2 tptp.uni)) (tptp.sort A1 (tptp.match_list A1 A X X1 X2))))
(assert (forall ((A tptp.ty) (A1 tptp.ty) (Z tptp.uni) (Z1 tptp.uni)) (=> (tptp.sort A1 Z) (= (tptp.match_list A1 A (tptp.nil A) Z Z1) Z))))
(assert (forall ((A tptp.ty) (A1 tptp.ty) (Z tptp.uni) (Z1 tptp.uni) (U tptp.uni) (U1 tptp.uni)) (=> (tptp.sort A1 Z1) (= (tptp.match_list A1 A (tptp.cons A U U1) Z Z1) Z1))))
(assert (forall ((A tptp.ty) (V tptp.uni) (V1 tptp.uni)) (not (= (tptp.nil A) (tptp.cons A V V1)))))
(declare-fun tptp.cons_proj_1 (tptp.ty tptp.uni) tptp.uni)
(assert (forall ((A tptp.ty) (X tptp.uni)) (tptp.sort A (tptp.cons_proj_1 A X))))
(assert (forall ((A tptp.ty) (U tptp.uni) (U1 tptp.uni)) (=> (tptp.sort A U) (= (tptp.cons_proj_1 A (tptp.cons A U U1)) U))))
(declare-fun tptp.cons_proj_2 (tptp.ty tptp.uni) tptp.uni)
(assert (forall ((A tptp.ty) (X tptp.uni)) (tptp.sort (tptp.list A) (tptp.cons_proj_2 A X))))
(assert (forall ((A tptp.ty) (U tptp.uni) (U1 tptp.uni)) (= (tptp.cons_proj_2 A (tptp.cons A U U1)) U1)))
(assert (forall ((A tptp.ty) (U tptp.uni)) (or (= U (tptp.nil A)) (= U (tptp.cons A (tptp.cons_proj_1 A U) (tptp.cons_proj_2 A U))))))
(declare-fun tptp.length (tptp.ty tptp.uni) Int)
(assert (forall ((A tptp.ty)) (and (= (tptp.length A (tptp.nil A)) 0) (forall ((X tptp.uni) (X1 tptp.uni)) (= (tptp.length A (tptp.cons A X X1)) (+ 1 (tptp.length A X1)))))))
(assert (forall ((A tptp.ty) (L tptp.uni)) (<= 0 (tptp.length A L))))
(assert (forall ((A tptp.ty) (L tptp.uni)) (= (= (tptp.length A L) 0) (= L (tptp.nil A)))))
(declare-fun tptp.infix_plpl (tptp.ty tptp.uni tptp.uni) tptp.uni)
(assert (forall ((A tptp.ty) (X tptp.uni) (X1 tptp.uni)) (tptp.sort (tptp.list A) (tptp.infix_plpl A X X1))))
(assert (forall ((A tptp.ty) (L2 tptp.uni)) (and (= (tptp.infix_plpl A (tptp.nil A) L2) L2) (forall ((X tptp.uni) (X1 tptp.uni)) (= (tptp.infix_plpl A (tptp.cons A X X1) L2) (tptp.cons A X (tptp.infix_plpl A X1 L2)))))))
(assert (forall ((A tptp.ty) (L1 tptp.uni) (L2 tptp.uni) (L3 tptp.uni)) (= (tptp.infix_plpl A L1 (tptp.infix_plpl A L2 L3)) (tptp.infix_plpl A (tptp.infix_plpl A L1 L2) L3))))
(assert (forall ((A tptp.ty) (L tptp.uni)) (= (tptp.infix_plpl A L (tptp.nil A)) L)))
(assert (forall ((A tptp.ty) (L1 tptp.uni) (L2 tptp.uni)) (= (tptp.length A (tptp.infix_plpl A L1 L2)) (+ (tptp.length A L1) (tptp.length A L2)))))
(declare-fun tptp.mem (tptp.ty tptp.uni tptp.uni) Bool)
(assert (forall ((A tptp.ty) (X tptp.uni)) (=> (tptp.sort A X) (and (not (tptp.mem A X (tptp.nil A))) (forall ((X1 tptp.uni) (X2 tptp.uni)) (=> (tptp.sort A X1) (= (tptp.mem A X (tptp.cons A X1 X2)) (or (= X X1) (tptp.mem A X X2)))))))))
(assert (forall ((A tptp.ty) (X tptp.uni) (L1 tptp.uni) (L2 tptp.uni)) (= (tptp.mem A X (tptp.infix_plpl A L1 L2)) (or (tptp.mem A X L1) (tptp.mem A X L2)))))
(assert (forall ((A tptp.ty) (X tptp.uni) (L tptp.uni)) (=> (tptp.mem A X L) (exists ((L1 tptp.uni) (L2 tptp.uni)) (let ((_let_1 (tptp.list A))) (and (tptp.sort _let_1 L1) (tptp.sort _let_1 L2) (= L (tptp.infix_plpl A L1 (tptp.cons A X L2)))))))))
(declare-fun tptp.reverse (tptp.ty tptp.uni) tptp.uni)
(assert (forall ((A tptp.ty) (X tptp.uni)) (tptp.sort (tptp.list A) (tptp.reverse A X))))
(assert (forall ((A tptp.ty)) (let ((_let_1 (tptp.nil A))) (and (= (tptp.reverse A _let_1) _let_1) (forall ((X tptp.uni) (X1 tptp.uni)) (= (tptp.reverse A (tptp.cons A X X1)) (tptp.infix_plpl A (tptp.reverse A X1) (tptp.cons A X (tptp.nil A)))))))))
(assert (forall ((A tptp.ty) (L1 tptp.uni) (L2 tptp.uni) (X tptp.uni)) (= (tptp.infix_plpl A (tptp.reverse A (tptp.cons A X L1)) L2) (tptp.infix_plpl A (tptp.reverse A L1) (tptp.cons A X L2)))))
(assert (forall ((A tptp.ty) (L tptp.uni) (X tptp.uni)) (= (tptp.reverse A (tptp.cons A X L)) (tptp.infix_plpl A (tptp.reverse A L) (tptp.cons A X (tptp.nil A))))))
(assert (forall ((A tptp.ty) (L tptp.uni)) (= (tptp.reverse A (tptp.reverse A L)) L)))
(assert (forall ((A tptp.ty) (L tptp.uni) (X tptp.uni)) (= (tptp.mem A X L) (tptp.mem A X (tptp.reverse A L)))))
(assert (forall ((A tptp.ty) (L tptp.uni)) (= (tptp.length A (tptp.reverse A L)) (tptp.length A L))))
(declare-fun tptp.tuple2 (tptp.ty tptp.ty) tptp.ty)
(declare-fun tptp.tuple21 (tptp.ty tptp.ty tptp.uni tptp.uni) tptp.uni)
(assert (forall ((A tptp.ty) (A1 tptp.ty) (X tptp.uni) (X1 tptp.uni)) (tptp.sort (tptp.tuple2 A1 A) (tptp.tuple21 A1 A X X1))))
(declare-fun tptp.tuple2_proj_1 (tptp.ty tptp.ty tptp.uni) tptp.uni)
(assert (forall ((A tptp.ty) (A1 tptp.ty) (X tptp.uni)) (tptp.sort A1 (tptp.tuple2_proj_1 A1 A X))))
(assert (forall ((A tptp.ty) (A1 tptp.ty) (U tptp.uni) (U1 tptp.uni)) (=> (tptp.sort A1 U) (= (tptp.tuple2_proj_1 A1 A (tptp.tuple21 A1 A U U1)) U))))
(declare-fun tptp.tuple2_proj_2 (tptp.ty tptp.ty tptp.uni) tptp.uni)
(assert (forall ((A tptp.ty) (A1 tptp.ty) (X tptp.uni)) (tptp.sort A (tptp.tuple2_proj_2 A1 A X))))
(assert (forall ((A tptp.ty) (A1 tptp.ty) (U tptp.uni) (U1 tptp.uni)) (=> (tptp.sort A U1) (= (tptp.tuple2_proj_2 A1 A (tptp.tuple21 A1 A U U1)) U1))))
(assert (forall ((A tptp.ty) (A1 tptp.ty) (U tptp.uni)) (=> (tptp.sort (tptp.tuple2 A1 A) U) (= U (tptp.tuple21 A1 A (tptp.tuple2_proj_1 A1 A U) (tptp.tuple2_proj_2 A1 A U))))))
(declare-fun tptp.combine (tptp.ty tptp.ty tptp.uni tptp.uni) tptp.uni)
(assert (forall ((A tptp.ty) (B tptp.ty) (X tptp.uni) (X1 tptp.uni)) (tptp.sort (tptp.list (tptp.tuple2 A B)) (tptp.combine B A X X1))))
(assert (forall ((A tptp.ty) (B tptp.ty) (X tptp.uni)) (and (= (tptp.combine B A X (tptp.nil B)) (tptp.nil (tptp.tuple2 A B))) (forall ((X1 tptp.uni) (X2 tptp.uni)) (and (= (tptp.combine B A (tptp.nil A) (tptp.cons B X1 X2)) (tptp.nil (tptp.tuple2 A B))) (forall ((X3 tptp.uni) (X4 tptp.uni)) (= (tptp.combine B A (tptp.cons A X3 X4) (tptp.cons B X1 X2)) (tptp.cons (tptp.tuple2 A B) (tptp.tuple21 A B X3 X1) (tptp.combine B A X4 X2)))))))))
(declare-sort tptp.a 0)
(declare-fun tptp.a1 () tptp.ty)
(declare-fun tptp.t2tb (tptp.a) tptp.uni)
(assert (forall ((X tptp.a)) (tptp.sort tptp.a1 (tptp.t2tb X))))
(declare-fun tptp.tb2t (tptp.uni) tptp.a)
(assert (forall ((I tptp.a)) (= (tptp.tb2t (tptp.t2tb I)) I)))
(assert (forall ((J tptp.uni)) (=> (tptp.sort tptp.a1 J) (= (tptp.t2tb (tptp.tb2t J)) J))))
(declare-sort tptp.list_lpa1cm_a1rp 0)
(declare-fun tptp.t2tb1 (tptp.list_lpa1cm_a1rp) tptp.uni)
(assert (forall ((X tptp.list_lpa1cm_a1rp)) (tptp.sort (tptp.list (tptp.tuple2 tptp.a1 tptp.a1)) (tptp.t2tb1 X))))
(declare-fun tptp.tb2t1 (tptp.uni) tptp.list_lpa1cm_a1rp)
(assert (forall ((I tptp.list_lpa1cm_a1rp)) (= (tptp.tb2t1 (tptp.t2tb1 I)) I)))
(assert (forall ((J tptp.uni)) (= (tptp.t2tb1 (tptp.tb2t1 J)) J)))
(declare-sort tptp.lpa1cm_a1rp 0)
(declare-fun tptp.t2tb2 (tptp.lpa1cm_a1rp) tptp.uni)
(assert (forall ((X tptp.lpa1cm_a1rp)) (tptp.sort (tptp.tuple2 tptp.a1 tptp.a1) (tptp.t2tb2 X))))
(declare-fun tptp.tb2t2 (tptp.uni) tptp.lpa1cm_a1rp)
(assert (forall ((I tptp.lpa1cm_a1rp)) (= (tptp.tb2t2 (tptp.t2tb2 I)) I)))
(assert (forall ((J tptp.uni)) (=> (tptp.sort (tptp.tuple2 tptp.a1 tptp.a1) J) (= (tptp.t2tb2 (tptp.tb2t2 J)) J))))
(declare-sort tptp.list_a1 0)
(declare-fun tptp.t2tb3 (tptp.list_a1) tptp.uni)
(assert (forall ((X tptp.list_a1)) (tptp.sort (tptp.list tptp.a1) (tptp.t2tb3 X))))
(declare-fun tptp.tb2t3 (tptp.uni) tptp.list_a1)
(assert (forall ((I tptp.list_a1)) (= (tptp.tb2t3 (tptp.t2tb3 I)) I)))
(assert (forall ((J tptp.uni)) (= (tptp.t2tb3 (tptp.tb2t3 J)) J)))
(assert (not (forall ((X tptp.list_a1) (Y tptp.list_a1)) (=> (<= (tptp.length tptp.a1 (tptp.t2tb3 X)) (tptp.length tptp.a1 (tptp.t2tb3 Y))) (forall ((X1 tptp.a) (X2 tptp.list_a1)) (let ((_let_1 (tptp.t2tb3 X2))) (=> (= X (tptp.tb2t3 (tptp.cons tptp.a1 (tptp.t2tb X1) _let_1))) (=> (<= (tptp.length tptp.a1 _let_1) (tptp.length tptp.a1 (tptp.t2tb3 Y))) (forall ((Result tptp.list_lpa1cm_a1rp) (Result1 tptp.list_a1)) (=> (exists ((Y0 tptp.list_a1)) (let ((_let_1 (tptp.t2tb3 Y0))) (let ((_let_2 (tptp.t2tb3 X2))) (and (= Y (tptp.tb2t3 (tptp.infix_plpl tptp.a1 _let_1 (tptp.t2tb3 Result1)))) (= (tptp.length tptp.a1 _let_1) (tptp.length tptp.a1 _let_2)) (= Result (tptp.tb2t1 (tptp.combine tptp.a1 tptp.a1 _let_2 (tptp.reverse tptp.a1 _let_1)))))))) (forall ((X3 tptp.a) (X4 tptp.list_a1)) (=> (= Result1 (tptp.tb2t3 (tptp.cons tptp.a1 (tptp.t2tb X3) (tptp.t2tb3 X4)))) (exists ((Y0 tptp.list_a1)) (let ((_let_1 (tptp.t2tb3 Y0))) (let ((_let_2 (tptp.t2tb3 X))) (and (= Y (tptp.tb2t3 (tptp.infix_plpl tptp.a1 _let_1 (tptp.t2tb3 X4)))) (= (tptp.length tptp.a1 _let_1) (tptp.length tptp.a1 _let_2)) (= (tptp.tb2t1 (tptp.cons (tptp.tuple2 tptp.a1 tptp.a1) (tptp.tuple21 tptp.a1 tptp.a1 (tptp.t2tb X1) (tptp.t2tb X3)) (tptp.t2tb1 Result))) (tptp.tb2t1 (tptp.combine tptp.a1 tptp.a1 _let_2 (tptp.reverse tptp.a1 _let_1))))))))))))))))))))
(check-sat)
(exit)
